InboundTrucks  = 40;
OutboundTrucks = 20;
InboundDoors   = 8;
OutboundDoors  = 4;
ReleaseTime    = [1,11,19,3,36,35,26,6,12,13,31,28,30,13,10,34,0,30,36,15,30,19,9,17,15,2,17,30,4,35,8,35,10,39,6,34,0,32,14,18];
UnloadTime     = [1,8,5,8,1,8,3,6,8,10,9,9,11,10,4,3,6,2,11,3,8,10,3,3,9,3,3,12,5,6,9,12,4,1,5,2,3,5,7,4];
LoadTime       = [7,2,6,1,5,11,12,1,6,12,11,9,12,4,5,5,11,2,12,3];
TransferTime   = [| 1,0,0,0,2,0,0,0,0,1,2,1,0,0,0,1,2,0,2,1 | 0,2,0,1,2,0,0,0,0,2,1,2,0,0,2,0,2,0,2,0 | 1,0,0,0,1,0,0,0,0,0,1,1,0,1,0,0,1,0,0,1 | 0,0,0,0,0,2,0,0,0,1,0,0,2,0,0,1,2,1,0,0 | 0,0,1,2,1,2,0,2,1,1,0,2,0,1,0,0,0,0,0,2 | 0,0,0,1,0,0,0,0,0,0,1,0,2,0,0,0,0,1,1,1 | 0,0,0,0,2,1,0,0,0,0,0,0,0,0,0,1,0,1,0,0 | 0,0,1,1,0,0,1,0,2,0,0,0,0,0,2,0,0,1,2,0 | 4,0,0,0,0,0,3,0,1,0,0,0,4,0,0,0,0,0,4,4 | 0,0,0,0,5,0,0,0,0,0,2,3,0,0,1,0,5,0,4,1 | 0,0,2,0,0,0,0,0,0,0,0,4,4,0,0,0,5,2,0,0 | 1,5,0,0,3,3,0,4,0,0,3,0,5,0,0,0,0,0,3,0 | 3,0,0,0,1,0,0,0,0,0,1,1,0,0,1,0,0,4,0,0 | 0,3,0,5,4,1,0,0,0,1,1,2,0,2,0,0,0,0,0,0 | 0,0,0,0,3,0,1,0,4,0,0,0,0,0,0,2,5,0,0,0 | 2,0,2,1,0,0,0,0,0,0,0,0,0,0,0,0,4,1,0,0 | 0,1,0,5,5,5,1,0,4,0,0,0,1,0,0,5,0,0,0,5 | 0,0,0,0,0,0,2,3,0,0,5,0,0,0,0,0,0,0,0,0 | 4,0,2,4,1,0,1,5,0,0,0,0,0,0,0,0,0,0,4,5 | 4,0,0,0,3,0,5,0,1,0,0,0,0,0,4,0,0,0,0,5 | 0,3,0,0,0,0,0,5,0,0,1,0,0,0,0,4,5,5,0,0 | 0,0,0,0,0,0,0,5,5,2,5,0,0,1,2,0,0,0,4,0 | 2,0,0,0,0,0,0,0,0,0,0,0,5,0,0,4,2,0,0,3 | 1,5,0,2,0,3,0,0,0,0,0,2,3,2,0,0,0,4,0,0 | 0,0,4,3,2,0,5,0,0,0,1,0,0,0,4,0,0,0,0,0 | 0,0,4,0,0,0,0,0,0,0,3,0,0,0,2,0,0,0,0,3 | 0,0,0,0,0,0,0,0,0,0,2,2,5,0,0,0,0,0,0,0 | 1,4,5,3,0,5,0,0,5,3,0,0,0,5,5,2,0,0,0,0 | 0,0,0,0,4,4,5,0,0,0,0,0,0,0,0,0,0,0,4,0 | 4,1,1,4,3,0,0,0,0,0,1,0,0,3,4,0,3,0,0,0 | 0,0,0,0,0,4,0,0,2,3,1,0,0,0,0,0,0,0,4,0 | 0,0,0,2,3,5,0,3,1,3,0,0,5,0,3,0,3,2,0,0 | 0,0,0,0,3,2,0,5,0,3,0,2,1,4,0,0,0,0,2,0 | 0,0,0,0,0,0,4,0,0,4,0,0,0,0,0,1,0,0,0,0 | 0,0,0,0,1,0,0,0,2,0,0,1,0,0,0,0,3,4,1,0 | 0,0,4,0,5,0,1,0,0,2,0,0,0,0,0,0,0,0,0,2 | 0,0,0,0,0,0,0,0,1,0,0,2,0,0,3,2,0,2,0,0 | 0,0,2,0,0,0,0,0,0,1,0,4,5,0,0,0,0,5,5,0 | 0,0,0,5,1,0,1,4,0,3,0,1,0,0,0,0,0,0,0,0 | 1,0,0,0,0,2,1,1,4,0,0,5,0,0,0,2,3,0,0,0 |];
